presolving:
(round 1, fast)       531 del vars, 6633 del conss, 0 add conss, 477 chg bounds, 6354 chg sides, 0 chg coeffs, 0 upgd conss, 0 impls, 12348 clqs
   (0.1s) running MILP presolver
   (0.1s) MILP presolver found nothing
(round 2, exhaustive) 531 del vars, 6633 del conss, 0 add conss, 477 chg bounds, 6354 chg sides, 0 chg coeffs, 12348 upgd conss, 0 impls, 12348 clqs
   (0.2s) probing: 51/6102 (0.8%) - 0 fixings, 0 aggregations, 0 implications, 0 bound changes
   (0.2s) probing aborted: 50/50 successive totally useless probings
   (0.2s) symmetry computation started: requiring (bin +, int -, cont +), (fixed: bin -, int +, cont -)
   (0.2s) no symmetry present
presolving (3 rounds: 3 fast, 2 medium, 2 exhaustive):
 531 deleted vars, 6633 deleted constraints, 0 added constraints, 477 tightened bounds, 0 added holes, 6354 changed sides, 0 changed coefficients
 0 implications, 12348 cliques
presolved problem has 6102 variables (6102 bin, 0 int, 0 impl, 0 cont) and 12348 constraints
  12348 constraints of type <setppc>
Presolving Time: 0.22

 time | node  | left  |LP iter|LP it/n|mem/heur|mdpt |vars |cons |rows |cuts |sepa|confs|strbr|  dualbound   | primalbound  |  gap   | compl. 
p 0.3s|     1 |     0 |     0 |     - |  clique|   0 |6102 |  12k|  12k|   0 |  0 |   0 |   0 | 0.000000e+00 |-4.160786e+05 |    Inf | unknown
p 0.4s|     1 |     0 |   439 |     - | vbounds|   0 |6102 |  12k|  12k|   0 |  0 |  23 |   0 | 0.000000e+00 |-3.941285e+05 |    Inf | unknown
  0.8s|     1 |     0 |  2619 |     - |    84M |   0 |6102 |  12k|  12k|   0 |  0 |  23 |   0 |-3.710875e+05 |-3.941285e+05 |   6.21%| unknown
  1.6s|     1 |     0 |  2724 |     - |    88M |   0 |6102 |  12k|  12k|   3 |  1 |  23 |   0 |-3.711430e+05 |-3.941285e+05 |   6.19%| unknown
  2.5s|     1 |     0 |  2852 |     - |    92M |   0 |6102 |  12k|  12k|   8 |  2 |  23 |   0 |-3.712030e+05 |-3.941285e+05 |   6.18%| unknown
  3.3s|     1 |     0 |  3170 |     - |    96M |   0 |6102 |  12k|  12k|  16 |  3 |  23 |   0 |-3.713272e+05 |-3.941285e+05 |   6.14%| unknown
  4.3s|     1 |     0 |  3444 |     - |   100M |   0 |6102 |  12k|  12k|  24 |  4 |  23 |   0 |-3.714022e+05 |-3.941285e+05 |   6.12%| unknown
  5.4s|     1 |     0 |  3724 |     - |   106M |   0 |6102 |  12k|  12k|  33 |  5 |  23 |   0 |-3.714776e+05 |-3.941285e+05 |   6.10%| unknown
  6.4s|     1 |     0 |  3981 |     - |   109M |   0 |6102 |  12k|  12k|  41 |  6 |  23 |   0 |-3.715297e+05 |-3.941285e+05 |   6.08%| unknown
  8.3s|     1 |     0 |  4243 |     - |   116M |   0 |6102 |  12k|  12k|  50 |  7 |  23 |   0 |-3.715826e+05 |-3.941285e+05 |   6.07%| unknown
  9.2s|     1 |     0 |  4442 |     - |   120M |   0 |6102 |  12k|  12k|  56 |  8 |  23 |   0 |-3.716066e+05 |-3.941285e+05 |   6.06%| unknown
 10.5s|     1 |     0 |  4713 |     - |   125M |   0 |6102 |  12k|  12k|  70 |  9 |  23 |   0 |-3.716671e+05 |-3.941285e+05 |   6.04%| unknown
 12.1s|     1 |     0 |  4979 |     - |   127M |   0 |6102 |  12k|  12k|  78 | 10 |  23 |   0 |-3.717041e+05 |-3.941285e+05 |   6.03%| unknown
 12.4s|     1 |     0 |  5179 |     - |   128M |   0 |6102 |  12k|  12k|  84 | 11 |  23 |   0 |-3.717208e+05 |-3.941285e+05 |   6.03%| unknown
 12.6s|     1 |     0 |  5297 |     - |   129M |   0 |6102 |  12k|  12k|  89 | 12 |  23 |   0 |-3.717363e+05 |-3.941285e+05 |   6.02%| unknown
 time | node  | left  |LP iter|LP it/n|mem/heur|mdpt |vars |cons |rows |cuts |sepa|confs|strbr|  dualbound   | primalbound  |  gap   | compl. 
 12.8s|     1 |     0 |  5426 |     - |   131M |   0 |6102 |  12k|  12k|  93 | 13 |  23 |   0 |-3.717541e+05 |-3.941285e+05 |   6.02%| unknown
 13.2s|     1 |     0 |  5792 |     - |   132M |   0 |6102 |  12k|  12k| 101 | 14 |  23 |   0 |-3.718398e+05 |-3.941285e+05 |   5.99%| unknown
 13.5s|     1 |     0 |  6089 |     - |   134M |   0 |6102 |  12k|  12k| 111 | 15 |  23 |   0 |-3.718944e+05 |-3.941285e+05 |   5.98%| unknown
 13.7s|     1 |     0 |  6251 |     - |   135M |   0 |6102 |  12k|  12k| 116 | 16 |  23 |   0 |-3.719161e+05 |-3.941285e+05 |   5.97%| unknown
 14.0s|     1 |     0 |  6501 |     - |   136M |   0 |6102 |  12k|  12k| 124 | 17 |  23 |   0 |-3.719683e+05 |-3.941285e+05 |   5.96%| unknown
 14.2s|     1 |     0 |  6676 |     - |   138M |   0 |6102 |  12k|  12k| 129 | 18 |  23 |   0 |-3.719897e+05 |-3.941285e+05 |   5.95%| unknown
 14.5s|     1 |     0 |  6891 |     - |   139M |   0 |6102 |  12k|  12k| 134 | 19 |  23 |   0 |-3.720270e+05 |-3.941285e+05 |   5.94%| unknown
 14.8s|     1 |     0 |  7064 |     - |   140M |   0 |6102 |  12k|  12k| 138 | 20 |  23 |   0 |-3.720455e+05 |-3.941285e+05 |   5.94%| unknown
 15.0s|     1 |     0 |  7238 |     - |   141M |   0 |6102 |  12k|  12k| 143 | 21 |  23 |   0 |-3.720585e+05 |-3.941285e+05 |   5.93%| unknown
 15.3s|     1 |     0 |  7339 |     - |   141M |   0 |6102 |  12k|  12k| 145 | 22 |  23 |   0 |-3.720833e+05 |-3.941285e+05 |   5.92%| unknown
 15.5s|     1 |     0 |  7465 |     - |   141M |   0 |6102 |  12k|  12k| 148 | 23 |  23 |   0 |-3.721015e+05 |-3.941285e+05 |   5.92%| unknown
 15.7s|     1 |     0 |  7570 |     - |   141M |   0 |6102 |  12k|  12k| 150 | 24 |  23 |   0 |-3.721178e+05 |-3.941285e+05 |   5.92%| unknown
 15.9s|     1 |     0 |  7686 |     - |   141M |   0 |6102 |  12k|  12k| 154 | 25 |  23 |   0 |-3.721458e+05 |-3.941285e+05 |   5.91%| unknown
 16.1s|     1 |     0 |  7816 |     - |   141M |   0 |6102 |  12k|  12k| 156 | 26 |  23 |   0 |-3.721621e+05 |-3.941285e+05 |   5.90%| unknown
 16.3s|     1 |     0 |  7917 |     - |   141M |   0 |6102 |  12k|  12k| 160 | 27 |  23 |   0 |-3.721746e+05 |-3.941285e+05 |   5.90%| unknown
 time | node  | left  |LP iter|LP it/n|mem/heur|mdpt |vars |cons |rows |cuts |sepa|confs|strbr|  dualbound   | primalbound  |  gap   | compl. 
 16.6s|     1 |     0 |  8095 |     - |   142M |   0 |6102 |  12k|  12k| 162 | 28 |  23 |   0 |-3.721944e+05 |-3.941285e+05 |   5.89%| unknown
 16.8s|     1 |     0 |  8220 |     - |   142M |   0 |6102 |  12k|  12k| 165 | 29 |  23 |   0 |-3.722102e+05 |-3.941285e+05 |   5.89%| unknown
d17.6s|     1 |     0 | 10703 |     - |farkasdi|   0 |6102 |  12k|  12k|   0 | 29 |  23 |   0 |-3.722102e+05 |-3.759662e+05 |   1.01%| unknown
 25.2s|     1 |     0 | 22191 |     - |   143M |   0 |6102 |  12k|  12k| 165 | 29 |  23 |   0 |-3.722102e+05 |-3.759662e+05 |   1.01%| unknown
 25.4s|     1 |     0 | 22239 |     - |   143M |   0 |6102 |  12k|  12k| 167 | 30 |  23 |   0 |-3.722138e+05 |-3.759662e+05 |   1.01%| unknown
 25.5s|     1 |     0 | 22268 |     - |   143M |   0 |6102 |  12k|  12k| 168 | 31 |  23 |   0 |-3.722146e+05 |-3.759662e+05 |   1.01%| unknown
 31.4s|     1 |     2 | 22268 |     - |   143M |   0 |6102 |  12k|  12k| 168 | 31 |  23 |  21 |-3.724938e+05 |-3.759662e+05 |   0.93%| unknown
L82.9s|    60 |    58 | 38843 | 525.2 |    alns|  20 |6102 |  12k|  12k| 234 |  2 |  23 | 218 |-3.725095e+05 |-3.750984e+05 |   0.69%| unknown
*84.8s|    76 |    33 | 43042 | 469.1 |    LP  |  20 |6102 |  12k|  12k| 243 |  1 |  23 | 218 |-3.726644e+05 |-3.742116e+05 |   0.42%| unknown
r84.9s|    77 |    32 | 43070 | 463.3 |shifting|  20 |6102 |  12k|  12k| 243 |  0 |  23 | 218 |-3.726644e+05 |-3.742115e+05 |   0.42%|   5.55%
*85.0s|    77 |    31 | 43080 | 463.4 |    LP  |  20 |6102 |  12k|  12k| 245 |  3 |  23 | 218 |-3.726644e+05 |-3.741475e+05 |   0.40%|   5.56%
 87.4s|   100 |    36 | 47642 | 401.9 |   172M |  20 |6102 |  12k|  12k| 245 |  0 |  23 | 234 |-3.727363e+05 |-3.741475e+05 |   0.38%|  11.54%
 98.4s|   200 |    28 | 67043 | 297.4 |   176M |  20 |6102 |  12k|  12k| 249 |  0 |  23 | 264 |-3.732748e+05 |-3.741475e+05 |   0.23%|  45.69%
* 100s|   212 |    28 | 70983 | 299.2 |    LP  |  20 |6102 |  12k|  12k| 249 |  2 |  23 | 281 |-3.733715e+05 |-3.740595e+05 |   0.18%|  54.20%

SCIP Status        : problem is solved [optimal solution found]
Solving Time (sec) : 109.55
Solving Nodes      : 262
Primal Bound       : -3.74059535401167e+05 (14 solutions)
Dual Bound         : -3.74059535401167e+05
Gap                : 0.00 %
Solve Status: optimal
Solve Time: 109.55 seconds
Objective Value: -374059.54
